Linux optc-01-03 4.15.0-58-generic #64-Ubuntu SMP Tue Aug 6 11:12:41 UTC 2019 x86_64 x86_64 x86_64 GNU/Linux

top - 03:43:46 up 1 day, 17:44,  0 users,  load average: 0,13, 0,66, 0,87
Tasks: 290 gesamt,   1 laufend, 149 schlafend,   0 gestoppt,   0 Zombie
%CPU(s):  7,1 be,  0,2 sy,  0,0 ni, 92,7 un,  0,0 wa,  0,0 hi,  0,0 si,  0,0 st
KiB Spch : 97514992 gesamt, 95452616 frei,   651512 belegt,  1410868 Puff/Cache
KiB Swap:  8388604 gesamt,  8388604 frei,        0 belegt. 96121120 verfü Spch 

  PID USER      PR  NI    VIRT    RES    SHR S  %CPU %MEM     ZEIT+ BEFEHL
    1 root      20   0  233864   9392   6676 S   0,0  0,0   0:13.41 systemd
    2 root      20   0       0      0      0 S   0,0  0,0   0:00.15 kthreadd
    4 root       0 -20       0      0      0 I   0,0  0,0   0:00.00 kworker/0:+
    6 root      20   0       0      0      0 I   0,0  0,0   0:00.00 kworker/u3+
    7 root       0 -20       0      0      0 I   0,0  0,0   0:00.00 mm_percpu_+
    8 root      20   0       0      0      0 S   0,0  0,0   0:00.01 ksoftirqd/0
    9 root      20   0       0      0      0 I   0,0  0,0   0:15.57 rcu_sched
   10 root      20   0       0      0      0 I   0,0  0,0   0:00.00 rcu_bh

hard time limit: 04:10:00
hard mem limit: 55100

SLURM jobID: 2182926

@01 /nfs/optimi/kombadon/IP/miplib/rgn.mps.gz ===========
-----------------------------
Fr 23. Aug 03:43:46 CEST 2019
-----------------------------
@03 1566524626
@05 7200
SCIP version 6.0.0 [precision: 8 byte] [memory: block] [mode: optimized] [LP solver: CPLEX 12.8.0.0] [GitHash: 41ab6e0014]
Copyright (C) 2002-2018 Konrad-Zuse-Zentrum fuer Informationstechnik Berlin (ZIB)

External codes: 
  Readline 7.0         GNU library for command line editing (gnu.org/s/readline)
  CPLEX 12.8.0.0       Linear Programming Solver developed by IBM (www.cplex.com)
  CppAD 20180000.0     Algorithmic Differentiation of C++ algorithms developed by B. Bell (www.coin-or.org/CppAD)
  ZLIB 1.2.11          General purpose compression library by J. Gailly and M. Adler (zlib.net)
  GMP 6.1.2            GNU Multiple Precision Arithmetic Library developed by T. Granlund (gmplib.org)
  bliss 0.73p          Computing Graph Automorphism Groups by T. Junttila and P. Kaski (http://www.tcs.hut.fi/Software/bliss/)

user parameter file <scip.set> not found - using default parameters

SCIP> 
SCIP> set load /home/optimi/bzfhende/opti/scip-opti/check/../settings/enable_treeeprofile.set
loaded parameter file </home/optimi/bzfhende/opti/scip-opti/check/../settings/enable_treeprofile.set>
SCIP> set misc referencevalue 8.2199999240e+01
misc/referencevalue = 82.19999924
SCIP> set limits time 7200
limits/time = 7200
SCIP> set limits nodes 2100000000
limits/nodes = 2100000000
SCIP> set limits memory 50000
limits/memory = 50000
SCIP> set lp advanced threads 1
lp/threads = 1
SCIP> set timing clocktype 1
timing/clocktype = 1
SCIP> set display freq 10000
display/freq = 10000
SCIP> set memory savefac 1.0
memory/savefac = 1
SCIP> set save /home/optimi/bzfhende/opti/scip-opti/check/treesize.estimation.jouurnal.3/bzfhende.MMMc.462_rgn.scip.M640.enable_treeprofile.set
saved parameter file </home/optimi/bzfhende/opti/scip-opti/check/treesize.estimation.journal.3/bzfhende.MMMc.462_rgn.scip.M640.enable_treeprofile.set>
SCIP> read /nfs/optimi/kombadon/IP/miplib/rgn.mps.gz

read problem </nfs/optimi/kombadon/IP/miplib/rgn.mps.gz>
============

original problem has 180 variables (100 bin, 0 int, 0 impl, 80 cont) and 24 constraints
SCIP> display parameters

number of parameters = 2448
non-default parameter settings:
display/freq = 10000
limits/time = 7200
limits/nodes = 2100000000
limits/memory = 50000
lp/threads = 1
memory/savefac = 1
misc/referencevalue = 82.19999924
presolving/maxrestarts = 0
estimates/profile/enabled = TRUE
estimates/profile/maxdepthfactor = 10
estimates/profile/freq = 0

SCIP> optimize

Activating tree profile data collection
presolving:
(round 1, fast)       5 del vars, 0 del conss, 0 add conss, 0 chg bounds, 0 chg sides, 0 chg coeffs, 0 upgd conss, 0 impls, 4 clqs
(round 2, exhaustive) 5 del vars, 0 del conss, 0 add conss, 0 chg bounds, 0 chg sides, 0 chg coeffs, 4 upgd conss, 0 impls, 4 clqs
   (0.0s) probing cycle finished: starting next cycle
presolving (3 rounds: 3 fast, 2 medium, 2 exhaustive):
 5 deleted vars, 0 deleted constraints, 0 added constraints, 0 tightened bounds, 0 added holes, 0 changed sides, 0 changed coefficients
 70 implications, 4 cliques
presolved problem has 175 variables (100 bin, 0 int, 0 impl, 75 cont) and 24 constraints
      4 constraints of type <setppc>
     20 constraints of type <linear>
Presolving Time: 0.00

 time | node  | left  |LP iter|LP it/n| mem |mdpt |frac |vars |cons |cols |rows |cuts |confs|strbr|  dualbound   | primalbound  |  gap   
Q 0.0s|     1 |     0 |    13 |     - |1669k|   0 |   - | 175 |  24 | 175 |  24 |   0 |   0 |   0 |-9.250000e+01 | 3.748000e+02 |    Inf 
k 0.0s|     1 |     0 |    28 |     - |1700k|   0 |   - | 175 |  24 | 175 |  24 |   0 |   0 |   0 |-9.250000e+01 | 3.520000e+02 |    Inf 
  0.0s|     1 |     0 |    99 |     - |1705k|   0 |  18 | 175 |  24 | 175 |  24 |   0 |   0 |   0 | 4.880000e+01 | 3.520000e+02 | 621.31%
  0.0s|     1 |     0 |   115 |     - |1854k|   0 |  18 | 175 |  24 | 175 |  27 |   3 |   0 |   0 | 4.894348e+01 | 3.520000e+02 | 619.20%
  0.0s|     1 |     0 |   136 |     - |1984k|   0 |  15 | 175 |  24 | 175 |  31 |   7 |   0 |   0 | 4.901739e+01 | 3.520000e+02 | 618.11%
  0.0s|     1 |     0 |   145 |     - |2040k|   0 |  17 | 175 |  24 | 175 |  32 |   8 |   0 |   0 | 4.911304e+01 | 3.520000e+02 | 616.71%
  0.0s|     1 |     0 |   165 |     - |2141k|   0 |  17 | 175 |  24 | 175 |  40 |  16 |   0 |   0 | 5.189375e+01 | 3.520000e+02 | 578.31%
  0.0s|     1 |     0 |   189 |     - |2185k|   0 |  16 | 175 |  24 | 175 |  48 |  24 |   0 |   0 | 5.736999e+01 | 3.520000e+02 | 513.56%
  0.0s|     1 |     0 |   206 |     - |2223k|   0 |  14 | 175 |  24 | 175 |  55 |  31 |   0 |   0 | 6.308996e+01 | 3.520000e+02 | 457.93%
  0.0s|     1 |     0 |   215 |     - |2234k|   0 |  13 | 175 |  24 | 175 |  59 |  35 |   0 |   0 | 6.618323e+01 | 3.520000e+02 | 431.86%
  0.0s|     1 |     0 |   217 |     - |2457k|   0 |  13 | 175 |  24 | 175 |  60 |  36 |   0 |   0 | 6.720497e+01 | 3.520000e+02 | 423.77%
  0.0s|     1 |     0 |   220 |     - |2464k|   0 |  13 | 175 |  24 | 175 |  62 |  38 |   0 |   0 | 6.720497e+01 | 3.520000e+02 | 423.77%
  0.0s|     1 |     0 |   231 |     - |2578k|   0 |  12 | 175 |  24 | 175 |  65 |  41 |   0 |   0 | 6.720497e+01 | 3.520000e+02 | 423.77%
  0.0s|     1 |     0 |   249 |     - |2601k|   0 |  15 | 175 |  24 | 175 |  68 |  44 |   0 |   0 | 6.720497e+01 | 3.520000e+02 | 423.77%
  0.0s|     1 |     0 |   267 |     - |2640k|   0 |  13 | 175 |  24 | 175 |  71 |  47 |   0 |   0 | 6.933416e+01 | 3.520000e+02 | 407.69%
 time | node  | left  |LP iter|LP it/n| mem |mdpt |frac |vars |cons |cols |rows |cuts |confs|strbr|  dualbound   | primalbound  |  gap   
  0.0s|     1 |     0 |   279 |     - |2695k|   0 |  13 | 175 |  24 | 175 |  75 |  51 |   0 |   0 | 6.959503e+01 | 3.520000e+02 | 405.78%
  0.0s|     1 |     0 |   290 |     - |2800k|   0 |  16 | 175 |  24 | 175 |  77 |  53 |   0 |   0 | 6.959503e+01 | 3.520000e+02 | 405.78%
  0.0s|     1 |     0 |   301 |     - |2862k|   0 |  14 | 175 |  24 | 175 |  68 |  55 |   0 |   0 | 7.059877e+01 | 3.520000e+02 | 398.59%
  0.1s|     1 |     0 |   313 |     - |2892k|   0 |  15 | 175 |  24 | 175 |  69 |  56 |   0 |   0 | 7.059877e+01 | 3.520000e+02 | 398.59%
  0.1s|     1 |     0 |   321 |     - |2960k|   0 |  15 | 175 |  24 | 175 |  71 |  58 |   0 |   0 | 7.073133e+01 | 3.520000e+02 | 397.66%
  0.1s|     1 |     0 |   342 |     - |3291k|   0 |  16 | 175 |  24 | 175 |  74 |  61 |   0 |   0 | 7.116311e+01 | 3.520000e+02 | 394.64%
  0.1s|     1 |     0 |   353 |     - |3539k|   0 |  16 | 175 |  24 | 175 |  78 |  65 |   0 |   0 | 7.345917e+01 | 3.520000e+02 | 379.18%
  0.1s|     1 |     0 |   365 |     - |3548k|   0 |  16 | 175 |  24 | 175 |  81 |  68 |   0 |   0 | 7.549618e+01 | 3.520000e+02 | 366.25%
  0.1s|     1 |     0 |   382 |     - |3670k|   0 |  14 | 175 |  24 | 175 |  77 |  72 |   0 |   0 | 7.644156e+01 | 3.520000e+02 | 360.48%
  0.1s|     1 |     0 |   399 |     - |3670k|   0 |  13 | 175 |  24 | 175 |  80 |  75 |   0 |   0 | 7.710319e+01 | 3.520000e+02 | 356.53%
  0.1s|     1 |     0 |   412 |     - |3671k|   0 |  17 | 175 |  24 | 175 |  83 |  78 |   0 |   0 | 7.843268e+01 | 3.520000e+02 | 348.79%
  0.1s|     1 |     0 |   419 |     - |3794k|   0 |  14 | 175 |  24 | 175 |  85 |  80 |   0 |   0 | 7.967471e+01 | 3.520000e+02 | 341.80%
  0.1s|     1 |     0 |   428 |     - |3796k|   0 |  13 | 175 |  24 | 175 |  87 |  82 |   0 |   0 | 8.004138e+01 | 3.520000e+02 | 339.77%
  0.1s|     1 |     0 |   432 |     - |3798k|   0 |  14 | 175 |  24 | 175 |  89 |  84 |   0 |   0 | 8.004138e+01 | 3.520000e+02 | 339.77%
  0.1s|     1 |     0 |   443 |     - |3859k|   0 |  13 | 175 |  24 | 175 |  84 |  87 |   0 |   0 | 8.036346e+01 | 3.520000e+02 | 338.01%
 time | node  | left  |LP iter|LP it/n| mem |mdpt |frac |vars |cons |cols |rows |cuts |confs|strbr|  dualbound   | primalbound  |  gap   
  0.1s|     1 |     0 |   449 |     - |3859k|   0 |  10 | 175 |  24 | 175 |  85 |  88 |   0 |   0 | 8.069988e+01 | 3.520000e+02 | 336.18%
  0.1s|     1 |     0 |   452 |     - |3859k|   0 |  10 | 175 |  24 | 175 |  87 |  90 |   0 |   0 | 8.124000e+01 | 3.520000e+02 | 333.28%
  0.1s|     1 |     0 |   453 |     - |3859k|   0 |  10 | 175 |  24 | 175 |  88 |  91 |   0 |   0 | 8.164000e+01 | 3.520000e+02 | 331.16%
  0.1s|     1 |     0 |   454 |     - |3859k|   0 |   6 | 175 |  24 | 175 |  89 |  92 |   0 |   0 | 8.180000e+01 | 3.520000e+02 | 330.32%
  0.1s|     1 |     0 |   455 |     - |3860k|   0 |   8 | 175 |  24 | 175 |  91 |  94 |   0 |   0 | 8.180000e+01 | 3.520000e+02 | 330.32%
  0.2s|     1 |     0 |   460 |     - |3860k|   0 |   0 | 175 |  24 | 175 |  80 |  96 |   0 |   0 | 8.220000e+01 | 3.520000e+02 | 328.22%
u 0.2s|     1 |     0 |   460 |     - |3864k|   0 |   - | 175 |  24 | 175 |  80 |   0 |   0 |   0 | 8.220000e+01 | 8.220000e+01 |   0.00%
SCIP nodes: 1 Estimation: -1
  0.2s|     1 |     0 |   460 |     - |3864k|   0 |   - | 175 |  24 | 175 |  80 |  96 |   0 |   0 | 8.220000e+01 | 8.220000e+01 |   0.00%
Report 1
Time Elapsed: 0.16
  Tree Data        : 1 nodes (1 visited, 0 inner, 1 leaves, 0 open), progress: 1.0000
Tree Estimation    :       estim       value       trend  resolution      smooth
  wbe              :          -1           -           -           -           -
  tree profile     :          -1           -           -           -           -
  gap              :           1     1.00000     1.00000           1           1
  progress         :           1     1.00000     1.00000           1           1
  leaf-frequency   :           1     0.50000     1.00000           1           1
  ssg              :           1     0.00000    -1.00000           1           1
  open-nodes       :           1     0.00000     0.00000           1           1
End of Report 1


SCIP Status        : problem is solved [optimal solution found]
Solving Time (sec) : 0.16
Solving Nodes      : 1
Primal Bound       : +8.21999992400000e+01 (3 solutions)
Dual Bound         : +8.21999992400000e+01
Gap                : 0.00 %

SCIP> display statistics

SCIP Status        : problem is solved [optimal solution found]
Total Time         :       0.16
  solving          :       0.16
  presolving       :       0.00 (included in solving)
  reading          :       0.00
  copying          :       0.00 (0 times copied the problem)
Original Problem   :
  Problem name     : RGN
  Variables        : 180 (100 binary, 0 integer, 0 implicit integer, 80 continuous)
  Constraints      : 24 initial, 24 maximal
  Objective        : minimize, 80 non-zeros (abs.min = 1, abs.max = 3)
Presolved Problem  :
  Problem name     : t_RGN
  Variables        : 175 (100 binary, 0 integer, 0 implicit integer, 75 continuous)
  Constraints      : 24 initial, 24 maximal
  Objective        : minimize, 95 non-zeros (abs.min = 1, abs.max = 41.4)
Presolvers         :   ExecTime  SetupTime  Calls  FixedVars   AggrVars   ChgTypes  ChgBounds   AddHoles    DelCons    AddCons   ChgSides   ChgCoefs
  boundshift       :       0.00       0.00      0          0          0          0          0          0          0          0          0          0
  convertinttobin  :       0.00       0.00      0          0          0          0          0          0          0          0          0          0
  domcol           :       0.00       0.00      1          0          0          0          0          0          0          0          0          0
  dualagg          :       0.00       0.00      0          0          0          0          0          0          0          0          0          0
  dualcomp         :       0.00       0.00      1          0          0          0          0          0          0          0          0          0
  dualinfer        :       0.00       0.00      0          0          0          0          0          0          0          0          0          0
  gateextraction   :       0.00       0.00      0          0          0          0          0          0          0          0          0          0
  implics          :       0.00       0.00      2          0          0          0          0          0          0          0          0          0
  inttobinary      :       0.00       0.00      0          0          0          0          0          0          0          0          0          0
  qpkktref         :       0.00       0.00      0          0          0          0          0          0          0          0          0          0
  redvub           :       0.00       0.00      0          0          0          0          0          0          0          0          0          0
  sparsify         :       0.00       0.00      1          0          0          0          0          0          0          0          0          0
  stuffing         :       0.00       0.00      0          0          0          0          0          0          0          0          0          0
  symbreak         :       0.00       0.00      0          0          0          0          0          0          0          0          0          0
  symmetry         :       0.00       0.00      0          0          0          0          0          0          0          0          0          0
  trivial          :       0.00       0.00      3          0          0          0          0          0          0          0          0          0
  tworowbnd        :       0.00       0.00      0          0          0          0          0          0          0          0          0          0
  dualfix          :       0.00       0.00      3          0          0          0          0          0          0          0          0          0
  genvbounds       :       0.00       0.00      0          0          0          0          0          0          0          0          0          0
  orbitalfixing    :       0.00       0.00      0          0          0          0          0          0          0          0          0          0
  probing          :       0.00       0.00      1          0          0          0          0          0          0          0          0          0
  pseudoobj        :       0.00       0.00      0          0          0          0          0          0          0          0          0          0
  vbounds          :       0.00       0.00      1          0          0          0          0          0          0          0          0          0
  setppc           :       0.00       0.00      3          0          0          0          0          0          0          0          0          0
  linear           :       0.00       0.00      5          0          5          0          0          0          0          0          0          0
  benders          :       0.00       0.00      0          0          0          0          0          0          0          0          0          0
  components       :       0.00       0.00      1          0          0          0          0          0          0          0          0          0
  root node        :          -          -      -          0          -          -         10          -          -          -          -          -
Constraints        :     Number  MaxNumber  #Separate #Propagate    #EnfoLP    #EnfoRelax  #EnfoPS    #Check   #ResProp    Cutoffs    DomReds       Cuts    Applied      Conss   Children
  benderslp        :          0          0          0          0          0          0          0         46          0          0          0          0          0          0          0
  integral         :          0          0          0          0          0          0          0         46          0          0          0          0          0          0          0
  setppc           :          4          4         34        661          0          0          0         40          0          0          0          0          0          0          0
  linear           :         20         20         34        665          0          0          0         39          0          0          0          0          0          0          0
  benders          :          0          0          0          0          0          0          0          4          0          0          0          0          0          0          0
  countsols        :          0          0          0          0          0          0          0          4          0          0          0          0          0          0          0
  components       :          0          0          0          0          0          0          0          0          0          0          0          0          0          0          0
Constraint Timings :  TotalTime  SetupTime   Separate  Propagate     EnfoLP     EnfoPS     EnfoRelax   Check    ResProp    SB-Prop
  benderslp        :       0.00       0.00       0.00       0.00       0.00       0.00       0.00       0.00       0.00       0.00
  integral         :       0.00       0.00       0.00       0.00       0.00       0.00       0.00       0.00       0.00       0.00
  setppc           :       0.00       0.00       0.00       0.00       0.00       0.00       0.00       0.00       0.00       0.00
  linear           :       0.00       0.00       0.00       0.00       0.00       0.00       0.00       0.00       0.00       0.00
  benders          :       0.00       0.00       0.00       0.00       0.00       0.00       0.00       0.00       0.00       0.00
  countsols        :       0.00       0.00       0.00       0.00       0.00       0.00       0.00       0.00       0.00       0.00
  components       :       0.00       0.00       0.00       0.00       0.00       0.00       0.00       0.00       0.00       0.00
Propagators        : #Propagate   #ResProp    Cutoffs    DomReds
  dualfix          :          3          0          0          0
  genvbounds       :          0          0          0          0
  nlobbt           :          0          0          0          0
  obbt             :          0          0          0          0
  orbitalfixing    :          0          0          0          0
  probing          :          0          0          0          0
  pseudoobj        :         38          0          0         10
  redcost          :         35          0          0          0
  rootredcost      :          0          0          0          0
  vbounds          :        441          0          0          0
Propagator Timings :  TotalTime  SetupTime   Presolve  Propagate    ResProp    SB-Prop
  dualfix          :       0.00       0.00       0.00       0.00       0.00       0.00
  genvbounds       :       0.00       0.00       0.00       0.00       0.00       0.00
  nlobbt           :       0.00       0.00       0.00       0.00       0.00       0.00
  obbt             :       0.00       0.00       0.00       0.00       0.00       0.00
  orbitalfixing    :       0.00       0.00       0.00       0.00       0.00       0.00
  probing          :       0.00       0.00       0.00       0.00       0.00       0.00
  pseudoobj        :       0.00       0.00       0.00       0.00       0.00       0.00
  redcost          :       0.00       0.00       0.00       0.00       0.00       0.00
  rootredcost      :       0.00       0.00       0.00       0.00       0.00       0.00
  vbounds          :       0.00       0.00       0.00       0.00       0.00       0.00
Conflict Analysis  :       Time      Calls    Success    DomReds  Conflicts   Literals    Reconvs ReconvLits   Dualrays   Nonzeros   LP Iters   (pool size: [--,--])
  propagation      :       0.00          0          0          -          0        0.0          0        0.0          -          -          -
  infeasible LP    :       0.00          0          0          -          0        0.0          0        0.0          0        0.0          0
  bound exceed. LP :       0.00          0          0          -          0        0.0          0        0.0          0        0.0          0
  strong branching :       0.00          0          0          -          0        0.0          0        0.0          -          -          0
  pseudo solution  :       0.00          0          0          -          0        0.0          0        0.0          -          -          -
  applied globally :       0.00          -          -          0          0        0.0          -          -          0          -          -
  applied locally  :          -          -          -          0          0        0.0          -          -          0          -          -
Separators         :   ExecTime  SetupTime      Calls    Cutoffs    DomReds       Cuts    Applied      Conss
  cut pool         :       0.01                    66          -          -        490          -          -    (maximal pool size: 1021)
  aggregation      :       0.11       0.00         33          0          0          0          0          0
  cgmip            :       0.00       0.00          0          0          0          0          0          0
  clique           :       0.00       0.00         33          0          0          0          0          0
  closecuts        :       0.00       0.00          0          0          0          0          0          0
  cmir             :       0.00       0.00          0          0          0          0         63          0
  convexproj       :       0.00       0.00          0          0          0          0          0          0
  disjunctive      :       0.00       0.00          0          0          0          0          0          0
  eccuts           :       0.00       0.00          0          0          0          0          0          0
  flowcover        :       0.00       0.00          0          0          0          0         28          0
  gauge            :       0.00       0.00          0          0          0          0          0          0
  gomory           :       0.01       0.00         10          0          0          0          3          0
  impliedbounds    :       0.00       0.00         33          0          0          0          2          0
  intobj           :       0.00       0.00          0          0          0          0          0          0
  mcf              :       0.00       0.00          1          0          0          0          0          0
  oddcycle         :       0.00       0.00          0          0          0          0          0          0
  rapidlearning    :       0.00       0.00          0          0          0          0          0          0
  strongcg         :       0.00       0.00         20          0          0          0          0          0
  zerohalf         :       0.00       0.00         20          0          0          0          0          0
Pricers            :   ExecTime  SetupTime      Calls       Vars
  problem variables:       0.00          -          0          0
Branching Rules    :   ExecTime  SetupTime   BranchLP  BranchExt   BranchPS    Cutoffs    DomReds       Cuts      Conss   Children
  allfullstrong    :       0.00       0.00          0          0          0          0          0          0          0          0
  cloud            :       0.00       0.00          0          0          0          0          0          0          0          0
  distribution     :       0.00       0.00          0          0          0          0          0          0          0          0
  fullstrong       :       0.00       0.00          0          0          0          0          0          0          0          0
  inference        :       0.00       0.00          0          0          0          0          0          0          0          0
  leastinf         :       0.00       0.00          0          0          0          0          0          0          0          0
  lookahead        :       0.00       0.00          0          0          0          0          0          0          0          0
  mostinf          :       0.00       0.00          0          0          0          0          0          0          0          0
  multaggr         :       0.00       0.00          0          0          0          0          0          0          0          0
  nodereopt        :       0.00       0.00          0          0          0          0          0          0          0          0
  pscost           :       0.00       0.00          0          0          0          0          0          0          0          0
  random           :       0.00       0.00          0          0          0          0          0          0          0          0
  relpscost        :       0.00       0.00          0          0          0          0          0          0          0          0
Primal Heuristics  :   ExecTime  SetupTime      Calls      Found       Best
  LP solutions     :       0.00          -          -          0          0
  relax solutions  :       0.00          -          -          0          0
  pseudo solutions :       0.00          -          -          0          0
  strong branching :       0.00          -          -          0          0
  actconsdiving    :       0.00       0.00          0          0          0
  alns             :       0.00       0.00          0          0          0
  bound            :       0.00       0.00          0          0          0
  clique           :       0.00       0.00          1          1          1
  coefdiving       :       0.00       0.00          0          0          0
  completesol      :       0.00       0.00          0          0          0
  conflictdiving   :       0.00       0.00          0          0          0
  crossover        :       0.00       0.00          0          0          0
  dins             :       0.00       0.00          0          0          0
  distributiondivin:       0.00       0.00          0          0          0
  dualval          :       0.00       0.00          0          0          0
  farkasdiving     :       0.00       0.00          1          1          1
  feaspump         :       0.00       0.00          0          0          0
  fixandinfer      :       0.00       0.00          0          0          0
  fracdiving       :       0.00       0.00          0          0          0
  gins             :       0.00       0.00          0          0          0
  guideddiving     :       0.00       0.00          0          0          0
  indicator        :       0.00       0.00          0          0          0
  intdiving        :       0.00       0.00          0          0          0
  intshifting      :       0.00       0.00          0          0          0
  linesearchdiving :       0.00       0.00          0          0          0
  localbranching   :       0.00       0.00          0          0          0
  locks            :       0.00       0.00          1          1          1
  lpface           :       0.00       0.00          0          0          0
  mpec             :       0.00       0.00          0          0          0
  multistart       :       0.00       0.00          0          0          0
  mutation         :       0.00       0.00          0          0          0
  nlpdiving        :       0.00       0.00          0          0          0
  objpscostdiving  :       0.00       0.00          0          0          0
  octane           :       0.00       0.00          0          0          0
  ofins            :       0.00       0.00          0          0          0
  oneopt           :       0.00       0.00          1          0          0
  proximity        :       0.00       0.00          0          0          0
  pscostdiving     :       0.00       0.00          0          0          0
  randrounding     :       0.00       0.00         33          0          0
  rens             :       0.00       0.00          0          0          0
  reoptsols        :       0.00       0.00          0          0          0
  repair           :       0.00       0.00          0          0          0
  rins             :       0.00       0.00          0          0          0
  rootsoldiving    :       0.00       0.00          0          0          0
  rounding         :       0.00       0.00         33          0          0
  shiftandpropagate:       0.00       0.00          0          0          0
  shifting         :       0.00       0.00         33          0          0
  simplerounding   :       0.00       0.00          0          0          0
  subnlp           :       0.00       0.00          0          0          0
  trivial          :       0.00       0.00          2          0          0
  trivialnegation  :       0.00       0.00          0          0          0
  trysol           :       0.00       0.00          0          0          0
  twoopt           :       0.00       0.00          0          0          0
  undercover       :       0.00       0.00          0          0          0
  vbounds          :       0.00       0.00          0          0          0
  veclendiving     :       0.00       0.00          0          0          0
  zeroobj          :       0.00       0.00          0          0          0
  zirounding       :       0.00       0.00          0          0          0
  other solutions  :          -          -          -          0          -
Diving Statistics  :      Calls      Nodes   LP Iters Backtracks  Conflicts   MinDepth   MaxDepth   AvgDepth  RoundSols  NLeafSols  MinSolDpt  MaxSolDpt  AvgSolDpt
  actconsdiving    :          0          -          -          -          -          -          -          -          -          -          -          -          -
  coefdiving       :          0          -          -          -          -          -          -          -          -          -          -          -          -
  conflictdiving   :          0          -          -          -          -          -          -          -          -          -          -          -          -
  distributiondivin:          0          -          -          -          -          -          -          -          -          -          -          -          -
  farkasdiving     :          1          0          0          0          0          1          1        1.0          0          1          1          1        1.0
  fracdiving       :          0          -          -          -          -          -          -          -          -          -          -          -          -
  guideddiving     :          0          -          -          -          -          -          -          -          -          -          -          -          -
  linesearchdiving :          0          -          -          -          -          -          -          -          -          -          -          -          -
  pscostdiving     :          0          -          -          -          -          -          -          -          -          -          -          -          -
  veclendiving     :          0          -          -          -          -          -          -          -          -          -          -          -          -
Neighborhoods      :      Calls  SetupTime  SolveTime SolveNodes       Sols       Best       Exp3  EpsGreedy        UCB TgtFixRate  Opt  Inf Node Stal  Sol  Usr Othr Actv
  rens             :          0       0.00       0.00          0          0          0    0.00000   -1.00000    1.00000      0.900    0    0    0    0    0    0    0    1
  rins             :          0       0.00       0.00          0          0          0    0.00000   -1.00000    1.00000      0.900    0    0    0    0    0    0    0    1
  mutation         :          0       0.00       0.00          0          0          0    0.00000   -1.00000    1.00000      0.900    0    0    0    0    0    0    0    1
  localbranching   :          0       0.00       0.00          0          0          0    0.00000   -1.00000    1.00000      0.900    0    0    0    0    0    0    0    1
  crossover        :          0       0.00       0.00          0          0          0    0.00000   -1.00000    1.00000      0.900    0    0    0    0    0    0    0    1
  proximity        :          0       0.00       0.00          0          0          0    0.00000   -1.00000    1.00000      0.900    0    0    0    0    0    0    0    1
  zeroobjective    :          0       0.00       0.00          0          0          0    0.00000   -1.00000    1.00000      0.900    0    0    0    0    0    0    0    1
  dins             :          0       0.00       0.00          0          0          0    0.00000   -1.00000    1.00000      0.900    0    0    0    0    0    0    0    1
LP                 :       Time      Calls Iterations  Iter/call   Iter/sec  Time-0-It Calls-0-It    ItLimit
  primal LP        :       0.00          4          0       0.00          -       0.00          4
  dual LP          :       0.02         34        432      12.71   21600.00       0.00          0
  lex dual LP      :       0.00          0          0       0.00          -
  barrier LP       :       0.00          0          0       0.00          -       0.00          0
  resolve instable :       0.00          0          0       0.00          -
  diving/probing LP:       0.00          2         28      14.00          -
  strong branching :       0.00          0          0       0.00          -          -          -          0
    (at root node) :          -          0          0       0.00          -
  conflict analysis:       0.00          0          0       0.00          -
B&B Tree           :
  number of runs   :          1
  nodes            :          1 (0 internal, 1 leaves)
  feasible leaves  :          0
  infeas. leaves   :          0
  objective leaves :          1
  nodes (total)    :          1 (0 internal, 1 leaves)
  nodes left       :          0
  max depth        :          0
  max depth (total):          0
  backtracks       :          0 (0.0%)
  early backtracks :          0 (0.0%)
  nodes exc. ref.  :          0 (0.0%)
  delayed cutoffs  :          0
  repropagations   :          0 (0 domain reductions, 0 cutoffs)
  avg switch length:       2.00
  switching time   :       0.00
Root Node          :
  First LP value   : +4.87999985599999e+01
  First LP Iters   :         71
  First LP Time    :       0.00
  Final Dual Bound : +8.21999992400000e+01
  Final Root Iters :        432
  Root LP Estimate :                     -
Solution           :
  Solutions found  :          3 (3 improvements)
  First Solution   : +3.74800000560000e+02   (in run 1, after 1 nodes, 0.00 seconds, depth 6, found by <clique>)
  Gap First Sol.   :   infinite
  Gap Last Sol.    :       0.00 %
  Primal Bound     : +8.21999992400000e+01   (in run 1, after 1 nodes, 0.16 seconds, depth 1, found by <farkasdiving>)
  Dual Bound       : +8.21999992400000e+01
  Gap              :       0.00 %
  Avg. Gap         :      78.94 % (12.63 primal-dual integral)
  Tree Data        : 1 nodes (1 visited, 0 inner, 1 leaves, 0 open), progress: 1.0000
Tree Estimation    :       estim       value       trend  resolution      smooth
  wbe              :           1           -           -           -           -
  tree profile     :          -1           -           -           -           -
  gap              :           1     1.00000     1.00000           1           1
  progress         :           1     1.00000     1.00000           1           1
  leaf-frequency   :           1     0.50000     1.00000           1           1
  ssg              :           1     0.00000    -1.00000           1           1
  open-nodes       :           1     0.00000     0.00000           1           1


SCIP> checksol

check best solution
solution is feasible in original problem
Violation          :    absolute    relative
  bounds           : 2.22045e-16 2.22045e-16
  integrality      : 0.00000e+00           -
  LP rows          : 8.88178e-16 2.53765e-16
  constraints      : 8.88178e-16 2.53765e-16

SCIP> write sol /local/tmp/bzfhende-tmpdir/bzfhende.MMMc.462_rgn.scip.M640.enablee_treeprofile.sol

written solution information to file </local/tmp/bzfhende-tmpdir/bzfhende.MMMc.462_rgn.scip.M640.enable_treeprofile.sol>

SCIP> quit

Disabling tree profile data collection
Read MPS: 1
MIP has 180 vars and 24 constraints
Read SOL: 1
Objective value computed by solver: 82.19999924

Integrality tolerance: 1/10000
Linear tolerance: 1/10000
Objective tolerance: 1/10000

Check SOL: Integrality 1 Constraints 1 Objective 1
Maximum violations: Integrality 0 Constraints 2e-15 Objective 9e-15
@04 1566524626
-----------------------------
Fr 23. Aug 03:43:46 CEST 2019
-----------------------------

=ready=
